\ LP format - for model browsing. Use MPS format to capture full model detail.
Minimize
  3.209225080713865 x[0,1,1] + 12.65698929149337 x[0,2,1]
   + 6.428629089710375 x[0,3,1] + 18.25297697251097 x[0,4,1]
   + 15.03050653245813 x[0,5,1] + 11.77940529138823 x[1,2,1]
   + 5.562447359351713 x[1,3,1] + 16.08379167424117 x[1,4,1]
   + 13.50428083025146 x[1,5,1] + 3.209225080713865 x[1,6,1]
   + 11.77940529138823 x[2,1,1] + 6.327362962003472 x[2,3,1]
   + 8.317375058923071 x[2,4,1] + 3.540413457714997 x[2,5,1]
   + 12.65698929149337 x[2,6,1] + 5.562447359351713 x[3,1,1]
   + 6.327362962003472 x[3,2,1] + 12.21533172422947 x[3,4,1]
   + 8.627095666842605 x[3,5,1] + 6.428629089710375 x[3,6,1]
   + 16.08379167424117 x[4,1,1] + 8.317375058923071 x[4,2,1]
   + 12.21533172422947 x[4,3,1] + 4.820929129591633 x[4,5,1]
   + 18.25297697251097 x[4,6,1] + 13.50428083025146 x[5,1,1]
   + 3.540413457714997 x[5,2,1] + 8.627095666842605 x[5,3,1]
   + 4.820929129591633 x[5,4,1] + 15.03050653245813 x[5,6,1]
Subject To
 Start_1: x[0,1,1] + x[0,2,1] + x[0,3,1] + x[0,4,1] + x[0,5,1] + x[0,6,1]
   = 1
 Finish_1: x[0,6,1] + x[1,6,1] + x[2,6,1] + x[3,6,1] + x[4,6,1] + x[5,6,1]
   = 1
 Visit_1: x[0,1,1] + x[2,1,1] + x[3,1,1] + x[4,1,1] + x[5,1,1] = 1
 Visit_2: x[0,2,1] + x[1,2,1] + x[3,2,1] + x[4,2,1] + x[5,2,1] = 1
 Visit_3: x[0,3,1] + x[1,3,1] + x[2,3,1] + x[4,3,1] + x[5,3,1] = 1
 Visit_4: x[0,4,1] + x[1,4,1] + x[2,4,1] + x[3,4,1] + x[5,4,1] = 1
 Visit_5: x[0,5,1] + x[1,5,1] + x[2,5,1] + x[3,5,1] + x[4,5,1] = 1
 Leave_1_1: x[0,1,1] - x[1,2,1] - x[1,3,1] - x[1,4,1] - x[1,5,1] - x[1,6,1]
   + x[2,1,1] + x[3,1,1] + x[4,1,1] + x[5,1,1] = 0
 Leave_2_1: x[0,2,1] + x[1,2,1] - x[2,1,1] - x[2,3,1] - x[2,4,1] - x[2,5,1]
   - x[2,6,1] + x[3,2,1] + x[4,2,1] + x[5,2,1] = 0
 Leave_3_1: x[0,3,1] + x[1,3,1] + x[2,3,1] - x[3,1,1] - x[3,2,1] - x[3,4,1]
   - x[3,5,1] - x[3,6,1] + x[4,3,1] + x[5,3,1] = 0
 Leave_4_1: x[0,4,1] + x[1,4,1] + x[2,4,1] + x[3,4,1] - x[4,1,1] - x[4,2,1]
   - x[4,3,1] - x[4,5,1] - x[4,6,1] + x[5,4,1] = 0
 Leave_5_1: x[0,5,1] + x[1,5,1] + x[2,5,1] + x[3,5,1] + x[4,5,1] - x[5,1,1]
   - x[5,2,1] - x[5,3,1] - x[5,4,1] - x[5,6,1] = 0
 Lower_time_1: t[1] >= 15
 Upper_time_1: t[1] <= 35
 Time_precedence_1_2: - 400 x[1,2,1] - t[1] + t[2] >= -387.2205947086118
 Time_precedence_1_3: - 400 x[1,3,1] - t[1] + t[3] >= -393.4375526406483
 Time_precedence_1_4: - 400 x[1,4,1] - t[1] + t[4] >= -382.9162083257588
 Time_precedence_1_5: - 400 x[1,5,1] - t[1] + t[5] >= -385.4957191697486
 Lower_time_2: t[2] >= 15
 Upper_time_2: t[2] <= 35
 Time_precedence_2_1: - 400 x[2,1,1] + t[1] - t[2] >= -387.2205947086118
 Time_precedence_2_3: - 400 x[2,3,1] - t[2] + t[3] >= -392.6726370379965
 Time_precedence_2_4: - 400 x[2,4,1] - t[2] + t[4] >= -390.6826249410769
 Time_precedence_2_5: - 400 x[2,5,1] - t[2] + t[5] >= -395.459586542285
 Lower_time_3: t[3] >= 8
 Upper_time_3: t[3] <= 28
 Time_precedence_3_1: - 400 x[3,1,1] + t[1] - t[3] >= -393.4375526406483
 Time_precedence_3_2: - 400 x[3,2,1] + t[2] - t[3] >= -392.6726370379965
 Time_precedence_3_4: - 400 x[3,4,1] - t[3] + t[4] >= -386.7846682757705
 Time_precedence_3_5: - 400 x[3,5,1] - t[3] + t[5] >= -390.3729043331574
 Lower_time_4: t[4] >= 9
 Upper_time_4: t[4] <= 29
 Time_precedence_4_1: - 400 x[4,1,1] + t[1] - t[4] >= -382.9162083257588
 Time_precedence_4_2: - 400 x[4,2,1] + t[2] - t[4] >= -390.6826249410769
 Time_precedence_4_3: - 400 x[4,3,1] + t[3] - t[4] >= -386.7846682757705
 Time_precedence_4_5: - 400 x[4,5,1] - t[4] + t[5] >= -394.1790708704084
 Lower_time_5: t[5] >= 11
 Upper_time_5: t[5] <= 31
 Time_precedence_5_1: - 400 x[5,1,1] + t[1] - t[5] >= -385.4957191697486
 Time_precedence_5_2: - 400 x[5,2,1] + t[2] - t[5] >= -395.459586542285
 Time_precedence_5_3: - 400 x[5,3,1] + t[3] - t[5] >= -390.3729043331574
 Time_precedence_5_4: - 400 x[5,4,1] + t[4] - t[5] >= -394.1790708704084
Bounds
 t[1] <= 40
 t[2] <= 40
 t[3] <= 40
 t[4] <= 40
 t[5] <= 40
Binaries
 x[0,1,1] x[0,2,1] x[0,3,1] x[0,4,1] x[0,5,1] x[0,6,1] x[1,2,1] x[1,3,1]
 x[1,4,1] x[1,5,1] x[1,6,1] x[2,1,1] x[2,3,1] x[2,4,1] x[2,5,1] x[2,6,1]
 x[3,1,1] x[3,2,1] x[3,4,1] x[3,5,1] x[3,6,1] x[4,1,1] x[4,2,1] x[4,3,1]
 x[4,5,1] x[4,6,1] x[5,1,1] x[5,2,1] x[5,3,1] x[5,4,1] x[5,6,1]
End
